100 10
513 414
688 650
669 330
448 516
649 560
614 725
671 627
425 186
687 341
336 518
860 388
445 375
561 713
397 508
322 571
285 464
701 719
602 585
513 670
453 275
357 478
448 606
920 729
917 717
547 450
285 288
437 627
849 512
947 643
541 670
513 649
734 664
825 532
681 548
760 617
586 744
605 332
519 333
709 687
878 816
437 612
832 621
332 72
471 641
775 547
366 446
770 637
549 388
584 535
462 627
420 534
582 543
589 668
923 433
346 372
314 365
580 244
386 679
578 258
518 393
645 520
236 450
899 620
611 567
548 515
514 511
395 444
328 683
917 431
471 470
646 726
314 499
794 444
706 587
458 292
512 255
478 624
584 713
605 352
853 521
829 434
389 416
511 238
515 274
339 603
568 373
471 477
313 344
546 645
423 576
329 560
557 464
393 291
638 670
161 546
410 305
741 572
651 621
224 644
368 251
